c Reduced graph for r1000.1 generated by Cyril Grelier
p edge 46 651
e 1 2
e 1 3
e 1 4
e 1 5
e 1 6
e 1 7
e 1 8
e 1 9
e 1 10
e 1 11
e 1 12
e 1 13
e 1 14
e 1 15
e 1 16
e 1 17
e 1 18
e 1 19
e 1 20
e 1 21
e 1 22
e 1 23
e 1 24
e 1 25
e 1 26
e 1 27
e 1 28
e 1 29
e 1 30
e 1 31
e 1 32
e 1 33
e 1 34
e 1 35
e 1 36
e 1 37
e 1 38
e 1 39
e 1 40
e 1 42
e 1 44
e 1 45
e 1 46
e 2 3
e 2 4
e 2 5
e 2 6
e 2 7
e 2 8
e 2 9
e 2 10
e 2 11
e 2 12
e 2 13
e 2 14
e 2 15
e 2 16
e 2 17
e 2 18
e 2 19
e 2 20
e 2 21
e 2 22
e 2 23
e 2 24
e 2 25
e 2 26
e 2 27
e 2 28
e 2 29
e 2 30
e 2 31
e 2 32
e 2 33
e 2 34
e 2 35
e 2 36
e 2 37
e 2 39
e 2 40
e 2 41
e 2 43
e 2 46
e 3 4
e 3 5
e 3 6
e 3 7
e 3 8
e 3 9
e 3 10
e 3 11
e 3 12
e 3 13
e 3 14
e 3 15
e 3 16
e 3 17
e 3 18
e 3 19
e 3 20
e 3 21
e 3 22
e 3 23
e 3 24
e 3 25
e 3 26
e 3 27
e 3 28
e 3 29
e 3 30
e 3 31
e 3 32
e 3 33
e 3 35
e 3 36
e 3 37
e 3 38
e 3 41
e 3 42
e 3 43
e 4 5
e 4 6
e 4 7
e 4 8
e 4 9
e 4 10
e 4 11
e 4 12
e 4 13
e 4 14
e 4 15
e 4 16
e 4 17
e 4 18
e 4 19
e 4 20
e 4 21
e 4 22
e 4 23
e 4 24
e 4 25
e 4 26
e 4 27
e 4 28
e 4 29
e 4 30
e 4 31
e 4 33
e 4 34
e 4 36
e 4 37
e 4 39
e 4 40
e 4 41
e 4 43
e 4 46
e 5 6
e 5 7
e 5 8
e 5 9
e 5 10
e 5 11
e 5 12
e 5 13
e 5 14
e 5 15
e 5 16
e 5 17
e 5 18
e 5 19
e 5 20
e 5 21
e 5 22
e 5 23
e 5 24
e 5 25
e 5 26
e 5 27
e 5 28
e 5 29
e 5 30
e 5 31
e 5 32
e 5 33
e 5 36
e 5 37
e 5 40
e 5 41
e 5 42
e 5 43
e 6 7
e 6 8
e 6 9
e 6 10
e 6 11
e 6 12
e 6 13
e 6 14
e 6 15
e 6 16
e 6 17
e 6 18
e 6 19
e 6 20
e 6 21
e 6 22
e 6 23
e 6 24
e 6 25
e 6 26
e 6 27
e 6 29
e 6 30
e 6 32
e 6 34
e 6 35
e 6 38
e 6 39
e 6 40
e 6 43
e 6 44
e 6 45
e 6 46
e 7 8
e 7 9
e 7 10
e 7 11
e 7 12
e 7 13
e 7 14
e 7 15
e 7 16
e 7 17
e 7 18
e 7 19
e 7 21
e 7 22
e 7 23
e 7 24
e 7 25
e 7 26
e 7 27
e 7 29
e 7 30
e 7 32
e 7 34
e 7 35
e 7 38
e 7 39
e 7 40
e 7 43
e 7 44
e 7 45
e 7 46
e 8 9
e 8 10
e 8 11
e 8 12
e 8 13
e 8 14
e 8 15
e 8 16
e 8 17
e 8 18
e 8 19
e 8 20
e 8 22
e 8 23
e 8 24
e 8 25
e 8 26
e 8 27
e 8 28
e 8 29
e 8 30
e 8 31
e 8 32
e 8 33
e 8 36
e 8 37
e 8 38
e 8 42
e 9 10
e 9 11
e 9 12
e 9 13
e 9 14
e 9 15
e 9 16
e 9 17
e 9 18
e 9 19
e 9 20
e 9 21
e 9 24
e 9 26
e 9 27
e 9 28
e 9 29
e 9 30
e 9 31
e 9 33
e 9 36
e 9 37
e 9 39
e 9 40
e 9 41
e 9 43
e 9 46
e 10 11
e 10 12
e 10 13
e 10 14
e 10 16
e 10 17
e 10 19
e 10 20
e 10 21
e 10 22
e 10 24
e 10 26
e 10 27
e 10 28
e 10 29
e 10 30
e 10 31
e 10 33
e 10 34
e 10 36
e 10 39
e 10 40
e 10 41
e 10 43
e 10 46
e 11 12
e 11 13
e 11 14
e 11 15
e 11 16
e 11 17
e 11 18
e 11 19
e 11 20
e 11 21
e 11 22
e 11 23
e 11 24
e 11 25
e 11 32
e 11 34
e 11 35
e 11 38
e 11 39
e 11 42
e 11 44
e 11 45
e 11 46
e 12 13
e 12 14
e 12 15
e 12 16
e 12 17
e 12 18
e 12 19
e 12 20
e 12 24
e 12 26
e 12 27
e 12 28
e 12 29
e 12 30
e 12 31
e 12 33
e 12 36
e 12 37
e 12 40
e 12 41
e 12 42
e 12 43
e 13 14
e 13 15
e 13 16
e 13 17
e 13 18
e 13 19
e 13 20
e 13 21
e 13 22
e 13 23
e 13 25
e 13 28
e 13 32
e 13 34
e 13 35
e 13 38
e 13 39
e 13 42
e 13 44
e 13 45
e 14 15
e 14 16
e 14 17
e 14 18
e 14 19
e 14 20
e 14 21
e 14 22
e 14 23
e 14 25
e 14 32
e 14 34
e 14 35
e 14 38
e 14 39
e 14 42
e 14 44
e 14 45
e 14 46
e 15 16
e 15 17
e 15 18
e 15 19
e 15 20
e 15 21
e 15 22
e 15 23
e 15 25
e 15 28
e 15 31
e 15 32
e 15 33
e 15 35
e 15 38
e 15 42
e 15 44
e 15 45
e 16 17
e 16 18
e 16 20
e 16 24
e 16 26
e 16 27
e 16 28
e 16 29
e 16 30
e 16 31
e 16 33
e 16 36
e 16 37
e 16 41
e 16 42
e 16 43
e 17 18
e 17 19
e 17 20
e 17 21
e 17 22
e 17 23
e 17 25
e 17 32
e 17 34
e 17 35
e 17 38
e 17 39
e 17 42
e 17 44
e 17 45
e 18 19
e 18 20
e 18 22
e 18 23
e 18 25
e 18 28
e 18 31
e 18 32
e 18 35
e 18 37
e 18 38
e 18 42
e 18 44
e 18 45
e 19 21
e 19 22
e 19 23
e 19 25
e 19 32
e 19 34
e 19 35
e 19 38
e 19 39
e 19 40
e 19 44
e 19 45
e 19 46
e 20 24
e 20 26
e 20 27
e 20 28
e 20 29
e 20 30
e 20 31
e 20 33
e 20 36
e 20 37
e 20 41
e 20 42
e 21 22
e 21 23
e 21 25
e 21 32
e 21 34
e 21 35
e 21 38
e 21 39
e 21 40
e 21 44
e 21 45
e 21 46
e 22 23
e 22 25
e 22 32
e 22 34
e 22 35
e 22 38
e 22 39
e 22 44
e 22 45
e 22 46
e 23 25
e 23 32
e 23 34
e 23 35
e 23 38
e 23 39
e 23 42
e 23 44
e 23 45
e 23 46
e 24 26
e 24 27
e 24 28
e 24 29
e 24 30
e 24 31
e 24 33
e 24 36
e 24 37
e 24 40
e 24 41
e 24 43
e 24 46
e 25 32
e 25 34
e 25 35
e 25 38
e 25 39
e 25 42
e 25 44
e 25 45
e 26 27
e 26 28
e 26 29
e 26 30
e 26 31
e 26 33
e 26 36
e 26 37
e 26 40
e 26 41
e 26 43
e 26 46
e 27 28
e 27 29
e 27 30
e 27 31
e 27 33
e 27 36
e 27 37
e 27 40
e 27 41
e 27 43
e 27 46
e 28 29
e 28 30
e 28 31
e 28 33
e 28 36
e 28 37
e 28 41
e 28 42
e 29 30
e 29 31
e 29 33
e 29 36
e 29 37
e 29 40
e 29 41
e 29 43
e 30 31
e 30 33
e 30 36
e 30 37
e 30 40
e 30 41
e 30 43
e 31 33
e 31 36
e 31 37
e 31 41
e 31 42
e 31 43
e 32 34
e 32 35
e 32 38
e 32 42
e 32 44
e 32 45
e 33 36
e 33 37
e 33 41
e 33 43
e 34 35
e 34 38
e 34 39
e 34 40
e 34 44
e 34 45
e 34 46
e 35 38
e 35 39
e 35 42
e 35 44
e 35 45
e 36 37
e 36 41
e 36 43
e 37 41
e 37 42
e 38 42
e 38 44
e 38 45
e 39 40
e 39 44
e 39 45
e 39 46
e 40 41
e 40 43
e 40 46
e 41 43
e 43 46
e 44 45
